GEDUNG_2_LANTAI
21
16
16
60
1.96615e+10
1.13054e+10
17.5
240
240
96
36
[Koordinat]
1
0
0
0
2
6
0
0
3
10
0
0
4
16
0
0
5
0
4
0
6
6
4
0
7
10
4
0
8
16
4
0
9
0
8
0
10
6
8
0
11
10
8
0
12
16
8
0
13
0
12
0
14
6
12
0
15
10
12
0
16
16
12
0
[Pengekang]
1
1
1
1
1
1
1
2
1
1
1
1
1
1
3
1
1
1
1
1
1
4
1
1
1
1
1
1
5
0
0
1
1
1
0
6
0
0
1
1
1
0
7
0
0
1
1
1
0
8
0
0
1
1
1
0
9
0
0
1
1
1
0
10
0
0
1
1
1
0
11
0
0
1
1
1
0
12
0
0
1
1
1
0
13
0
0
1
1
1
0
14
0
0
1
1
1
0
15
0
0
1
1
1
0
16
0
0
1
1
1
0
[Batang]
1
1
5
0
2
2
6
0
3
3
7
0
4
4
8
0
5
5
9
0
6
6
10
0
7
7
11
0
8
8
12
0
9
9
13
0
10
10
14
0
11
11
15
0
12
12
16
0
13
5
6
0
14
6
7
0
15
7
8
0
16
9
10
0
17
10
11
0
18
11
12
0
19
13
14
0
20
14
15
0
21
15
16
0
